<?xml version = "1.0" standalone="yes"?>
<!-- This file has been generated by DOcplex version 2.23.222  -->
<CPLEXSolution version="1.0">
 <header
   problemName="CVRP"
   objectiveValue="14506.8"
  />
 <variables>
  <variable name="x_0_2" index="1" value="1.00000"/>
  <variable name="x_0_4" index="3" value="1.00000"/>
  <variable name="x_0_6" index="5" value="1.00000"/>
  <variable name="x_0_8" index="7" value="1.00000"/>
  <variable name="x_0_9" index="8" value="1.00000"/>
  <variable name="x_0_12" index="11" value="1.00000"/>
  <variable name="x_0_14" index="13" value="1.00000"/>
  <variable name="x_0_15" index="14" value="1.00000"/>
  <variable name="x_0_16" index="15" value="1.00000"/>
  <variable name="x_0_20" index="19" value="1.00000"/>
  <variable name="x_0_24" index="23" value="1.00000"/>
  <variable name="x_0_25" index="24" value="1.00000"/>
  <variable name="x_0_26" index="25" value="1.00000"/>
  <variable name="x_0_27" index="26" value="1.00000"/>
  <variable name="x_1_0" index="29" value="1.00000"/>
  <variable name="x_2_0" index="58" value="1.00000"/>
  <variable name="x_3_0" index="87" value="1.00000"/>
  <variable name="x_4_0" index="116" value="1.00000"/>
  <variable name="x_5_28" index="172" value="1.00000"/>
  <variable name="x_6_0" index="174" value="1.00000"/>
  <variable name="x_7_0" index="203" value="1.00000"/>
  <variable name="x_8_1" index="233" value="1.00000"/>
  <variable name="x_9_21" index="281" value="1.00000"/>
  <variable name="x_10_0" index="290" value="1.00000"/>
  <variable name="x_11_17" index="335" value="1.00000"/>
  <variable name="x_12_22" index="369" value="1.00000"/>
  <variable name="x_13_0" index="377" value="1.00000"/>
  <variable name="x_14_11" index="417" value="1.00000"/>
  <variable name="x_15_13" index="448" value="1.00000"/>
  <variable name="x_16_19" index="482" value="1.00000"/>
  <variable name="x_17_0" index="493" value="1.00000"/>
  <variable name="x_18_23" index="544" value="1.00000"/>
  <variable name="x_19_0" index="551" value="1.00000"/>
  <variable name="x_20_18" index="598" value="1.00000"/>
  <variable name="x_21_29" index="637" value="1.00000"/>
  <variable name="x_22_3" index="641" value="1.00000"/>
  <variable name="x_23_7" index="674" value="1.00000"/>
  <variable name="x_24_0" index="696" value="1.00000"/>
  <variable name="x_25_0" index="725" value="1.00000"/>
  <variable name="x_26_5" index="759" value="1.00000"/>
  <variable name="x_27_10" index="793" value="1.00000"/>
  <variable name="x_28_0" index="812" value="1.00000"/>
  <variable name="x_29_0" index="841" value="1.00000"/>
  <variable name="u_1" index="870" value="46.00000"/>
  <variable name="u_2" index="871" value="40.00000"/>
  <variable name="u_3" index="872" value="55.00000"/>
  <variable name="u_4" index="873" value="54.00000"/>
  <variable name="u_5" index="874" value="27.00000"/>
  <variable name="u_6" index="875" value="56.00000"/>
  <variable name="u_7" index="876" value="54.00000"/>
  <variable name="u_8" index="877" value="27.00000"/>
  <variable name="u_9" index="878" value="21.00000"/>
  <variable name="u_10" index="879" value="56.00000"/>
  <variable name="u_11" index="880" value="51.00000"/>
  <variable name="u_12" index="881" value="8.00000"/>
  <variable name="u_13" index="882" value="52.00000"/>
  <variable name="u_14" index="883" value="35.00000"/>
  <variable name="u_15" index="884" value="42.00000"/>
  <variable name="u_16" index="885" value="26.00000"/>
  <variable name="u_17" index="886" value="56.00000"/>
  <variable name="u_18" index="887" value="23.00000"/>
  <variable name="u_19" index="888" value="56.00000"/>
  <variable name="u_20" index="889" value="12.00000"/>
  <variable name="u_21" index="890" value="39.00000"/>
  <variable name="u_22" index="891" value="14.00000"/>
  <variable name="u_23" index="892" value="47.00000"/>
  <variable name="u_24" index="893" value="56.00000"/>
  <variable name="u_25" index="894" value="56.00000"/>
  <variable name="u_26" index="895" value="2.00000"/>
  <variable name="u_27" index="896" value="40.00000"/>
  <variable name="u_28" index="897" value="33.00000"/>
  <variable name="u_29" index="898" value="56.00000"/>
 </variables>
</CPLEXSolution>
